30 3000
1 475
2 473
3 468
4 465
5 462
6 447
7 444
8 426
9 423
10 412
11 411
12 409
13 403
14 402
15 399
16 396
17 396
18 382
19 376
20 369
21 366
22 361
23 347
24 340
25 339
26 334
27 333
28 319
29 314
30 313
